etc/upTests/_zothers/tupley32-8-6/0001.eprime
language ESSENCE' 1.0

find pain_tuple1: matrix indexed by [int(1)] of int(1)
find pain_tuple2_tuple1: matrix indexed by [int(1), int(1)] of int(12)
find pain_tuple2_tuple2: matrix indexed by [int(1), int(1)] of int(13)
such that
    pain_tuple1[1] = 1,
    forAll v__0 : int(1)
        . pain_tuple2_tuple1[1, v__0] = [12][v__0]
          /\
          pain_tuple2_tuple2[1, v__0] = [13][v__0]
