etc/upTests/_zothers/tupley32-8-6/0001.eprime.solution
language ESSENCE' 1.0
$ minion Nodes: 1
$ minion TotalTime: 0.000336
$ Savile Row TotalTime: 0.132
letting pain_tuple1 be [1;int(1)]
letting pain_tuple2_tuple1 be [[12;int(1)];int(1)]
letting pain_tuple2_tuple2 be [[13;int(1)];int(1)]
